[VALIDATOR STDOUT]
Checking plan: /home/jfan5/Safety-gen/runs/benchmark/optic/ferry_20260129_162355/ferry/optic_results/ferry-l33-c17-s33001.plan
Plan executed successfully - checking goal
Plan valid
Final value: 81 

Successful plans:
Value: 81
 /home/jfan5/Safety-gen/runs/benchmark/optic/ferry_20260129_162355/ferry/optic_results/ferry-l33-c17-s33001.plan 81
